16 965
528 7 504 7 413 7 254 9 80 11 923 15 770 20
528 7 504 7 413 7 254 9 80 11 923 15 770 20
529 7 485 7 272 7 90 9 798 11 593 18
529 7 485 7 272 7 90 9 798 11 593 18
520 7 479 7 356 7 157 9 9 11 815 15 658 22
520 7 441 7 296 7 152 12
535 8 494 8 321 11
529 7 483 7 293 10
529 7 485 7 295 10
521 7 475 7 329 11
520 7 443 10
525 7 482 7 365 7 212 9 29 11 823 18
525 7 476 7 354 7 155 9 5 11 838 15 650 20 567 28
521 7 475 7 352 7 194 9 49 13
525 7 482 7 394 7 212 9 29 11 822 15 625 21
525 7 505 7 381 7 218 9 50 11 850 15 664 21
